50
    1    50    50
    2    18    18
    3    26    26
    4     1     1
    5    26    26
    6    18    18
    7    29    29
    8    44    44
    9    14    14
   10    46    46
   11    18    18
   12    15    15
   13     1     1
   14    16    16
   15    30    30
   16     2     2
   17    43    43
   18    47    47
   19    16    16
   20     3     3
   21    22    22
   22    21    21
   23    47    47
   24    49    49
   25    10    10
   26     9     9
   27    32    32
   28    20    20
   29    33    33
   30    31    31
   31    19    19
   32    44    44
   33    43    43
   34    32    32
   35    12    12
   36    24    24
   37     1     1
   38    23    23
   39    24    24
   40     8     8
   41     7     7
   42    50    50
   43    20    20
   44    11    11
   45    46    46
   46    42    42
   47    25    25
   48    38    38
   49     1     1
   50     1     1
402
